*SENSE:Maximize
NAME          Fazendeiro
ROWS
 N  OBJ
 L  Arroz
 L  Milho
 L  Mao_de_Obra
COLUMNS
    x1        Arroz      1.000000000000e+00
    x1        Milho      1.000000000000e+00
    x1        Mao_de_Obra   1.000000000000e+00
    x1        OBJ        5.000000000000e+00
    x2        Mao_de_Obra   2.000000000000e+00
    x2        OBJ        2.000000000000e+00
RHS
    RHS       Arroz      3.000000000000e+00
    RHS       Milho      4.000000000000e+00
    RHS       Mao_de_Obra   9.000000000000e+00
BOUNDS
ENDATA
